NAME          BLEND
ROWS
 G  N
 G  P
 G  K
 G  S
 G  MG
 G  B
 G  ZN
 G  DEN
 G  CA
 E  WT
 N  COST
 N  PRICE
 N  SCALE
COLUMNS
*234567890123456789012345678901234567890123456789012345678901
    I184600   N             0.180000   P             0.460000   
    I184600   DEN           0.016043   WT            1.000000   
    I184600   COST        191.000000   PRICE       201.000000   
    I184600   SCALE      2000.000000   
    I115200   N             0.110000   P             0.520000   
    I115200   DEN           0.015426   WT            1.000000   
    I115200   COST        999.000000   PRICE       999.000000   
    I115200   SCALE      2000.000000   
    I004600   P             0.460000   DEN           0.014344   
    I004600   CA            0.190000   WT            1.000000   
    I004600   COST        175.000000   PRICE       218.750000   
    I004600   SCALE      2000.000000   
    I460000   N             0.460000   DEN           0.011959   
    I460000   WT            1.000000   COST        317.000000   
    I460000   PRICE       485.000000   SCALE      2000.000000   
    I210000   N             0.210000   S             0.240000   
    I210000   DEN           0.018182   WT            1.000000   
    I210000   COST        245.000000   PRICE       285.000000   
    I210000   SCALE      2000.000000   
    I000060   K             0.600000   DEN           0.015450   
    I000060   WT            1.000000   COST        152.000000   
    I000060   PRICE       233.850000   SCALE      2000.000000   
    I000022   K             0.220000   S             0.220000   
    I000022   MG            0.110000   DEN           0.010273   
    I000022   WT            1.000000   COST        999.000000   
    I000022   PRICE       999.000000   SCALE      2000.000000   
    I20S36Z   S             0.200000   ZN            0.360000   
    I20S36Z   DEN           0.013039   WT            1.000000   
    I20S36Z   COST        444.200000   PRICE       683.380000   
    I20S36Z   SCALE      2000.000000   
    I14B000   B             0.143000   DEN           0.021940   
    I14B000   WT            1.000000   COST          400.0000   
    I14B000   PRICE         500.0000   SCALE         2000.000   
    I000000   DEN           0.011141   WT            1.000000   
    I000000   COST         14.000000   PRICE        21.540000   
    I000000   SCALE      2000.000000   
    PRODUCT   WT           -1.000000   COST          0.000000   
    PRODUCT   PRICE         0.000000   SCALE         1.000000   
*234567890123456789012345678901234567890123456789012345678901
RHS
    RHS1      N             0.120000   
    RHS1      P             0.120000   
    RHS1      K             0.120000   
BOUNDS
 LO BND1      PRODUCT       1.000000   
ENDATA
ROWSCALE
*234567890123456789012345678901234567890123456789012345678901
    N         T   F     100.000000    00 Nitrogen
    P         T   F     100.000000    00 Phosphate
    K         T   F     100.000000    00 Potash
    S         T   F     100.000000    00 Sulfur
    MG        T   F     100.000000    00 Magnesium
    B         T   F     100.000000    00 Boron
    ZN        T   F     100.000000    00 Zinc
    DEN       T   F     100.000000    00 Density
    CA        T   F     100.000000    00 Calcium
    WT        F   F       1.000000    00 Weight
COLSCALE
*234567890123456789012345678901234567890123456789012345678901
    I184600   F   F    2000.000000    00 18-46-0
    I115200   F   F    2000.000000    00 11-52-0
    I004600   F   F    2000.000000    00 0-46-0
    I460000   F   F    2000.000000    00 UREA (46-0-0)
    I210000   F   F    2000.000000    00 21-0-0-24S
    I000060   F   F    2000.000000    00 0-0-60
    I000022   F   F    2000.000000    00 0-0-22 K-MAG
    I20S36Z   F   F    2000.000000    00 36Zn 20S
    I14B000   F   F    2000.000000    01 14% B
    I000000   F   F    2000.000000    00 Filler
    PRODUCT   F   F       1.000000    00 
ENDSCALE